c --- [ banner ] -------------------------------------------------------------
c 
c CaDiCaL Radically Simplified CDCL SAT Solver
c Copyright (c) 2016-2021 A. Biere, M. Fleury, N. Froleyks
c 
c Version 1.5.2 a5f15211db36c3956764e18194dd5bd63bf3b5e6
c g++ (GCC) 9.3.0 -Wall -Wextra -O3 -DNDEBUG
c Fri Oct 21 01:27:37 EDT 2022 Linux gra-login3 3.10.0-1160.66.1.el7.x86_64 x86_64
c 
c --- [ limit ] --------------------------------------------------------------
c 
c setting conflict limit to 200000 conflicts (due to '200000')
c 
c --- [ parsing input ] ------------------------------------------------------
c 
c reading DIMACS file from '33.cubes5048.adj'
c opening file to read '33.cubes5048.adj'
c found 'p cnf 6160 1595474' header
c parsed 1595474 clauses in 17.16 seconds process time
c closing file '33.cubes5048.adj'
c after reading 1457566768 bytes 1390.0 MB
c 
c --- [ options ] ------------------------------------------------------------
c 
c all options are set to their default value
c 
c --- [ solving ] ------------------------------------------------------------
c 
c time measured in process time since initialization
c 
c  seconds    reductions  redundant   irredundant
c          MB     restarts       trail       variables
c            level   conflicts       glue         remaining
c 
c * 17.17 1377  0 0   0    0    0  0% 0 1595422 2390 39%
c { 18.78 1456  0 0   0    0    0  0% 0 1595422 2390 39%
c i 19.72 1471 1016 0   0  189  147 46% 7 1595422 2360 38%
c - 23.85 1390 808 1   0  303  225 42% 7 235582 2355 38%
c i 24.16 1390 748 1   5  330  244 41% 9 235582 2353 38%
c i 24.16 1390 738 1   6  335  246 41% 9 235582 2350 38%
c i 24.18 1390 731 1   7  339  247 41% 9 235582 2347 38%
c i 24.50 1390 684 1  13  365  271 40% 10 235582 2345 38%
c i 24.50 1390 681 1  14  367  271 40% 10 235582 2322 38%
c i 24.51 1390 676 1  14  370  271 40% 10 235582 2319 38%
c i 24.61 1390 664 1  17  378  278 39% 10 235582 2310 38%
c i 24.77 1390 642 1  21  394  291 39% 13 235582 2309 37%
c i 24.80 1390 637 1  22  398  294 38% 13 235582 2306 37%
c i 24.91 1390 595 1  29  434  319 38% 15 235582 2298 37%
c i 24.91 1390 589 1  30  438  322 38% 15 235582 2297 37%
c i 25.07 1391 560 1  36  463  341 37% 15 235582 2295 37%
c i 25.26 1391 535 1  42  486  361 37% 16 235582 2294 37%
c i 25.30 1391 527 1  44  493  367 36% 16 235582 2293 37%
c i 25.58 1391 490 1  55  538  406 36% 19 235582 2292 37%
c i 25.62 1391 487 1  57  542  409 36% 20 235582 2291 37%
c 
c  seconds     reductions  redundant   irredundant
c          MB      restarts       trail       variables
c             level   conflicts       glue         remaining
c 
c i 25.65 1391 482 1  58  549  415 36% 20 235582 2286 37%
c i 25.81 1391 467 1  64  567  430 35% 20 235582 2274 37%
c i 26.00 1391 449 1  70  593  454 35% 20 235582 2273 37%
c i 26.53 1391 398 1  88  679  528 34% 20 235582 2272 37%
c i 26.56 1391 390 1  88  694  541 34% 20 235582 2271 37%
c i 26.56 1391 389 1  88  696  542 34% 20 235582 2270 37%
c i 26.58 1391 387 1  88  699  544 34% 20 235582 2269 37%
c i 26.60 1391 382 1  88  709  553 34% 20 235582 2268 37%
c i 26.67 1391 341 1  88  799  621 33% 20 235582 2267 37%
c i 26.67 1391 336 1  88  811  629 33% 19 235582 2266 37%
c i 26.72 1391 324 1  93  849  660 33% 20 235582 2265 37%
c i 26.74 1391 322 1  93  863  669 33% 20 235582 2264 37%
c i 26.93 1391 319 1  98  884  686 33% 21 235582 2263 37%
c i 27.05 1391 314 1 102  900  699 33% 21 235582 2261 37%
c i 27.34 1391 305 1 113  933  727 33% 21 235582 2260 37%
c i 27.61 1391 289 1 130  996  781 32% 22 235582 2259 37%
c i 27.61 1391 288 1 131  999  783 32% 22 235582 2258 37%
c i 27.62 1391 288 1 131 1000  783 32% 22 235582 2257 37%
c } 27.62 1391 288 1 131 1000  783 32% 22 235582 2257 37%
c [ 27.62 1391  0 1 131 1000  783  0% 0 235582 2257 37%
c 
c  seconds    reductions  redundant  irredundant
c          MB     restarts       trail      variables
c            level   conflicts       glue        remaining
c 
c O 27.62 1391 91 1 131 1003  785 19% 9 235582 2257 37%
c i 27.72 1391 19 1 131 1117  877 33% 14 235582 2256 37%
c - 28.15 1474 19 2 131 1126  803 33% 14 203225 2256 37%
c i 28.32 1474 21 2 131 1273  904 32% 17 203225 2255 37%
c i 28.34 1474 22 2 131 1304  924 32% 17 203225 2254 37%
c i 28.34 1474 22 2 131 1312  929 32% 17 203225 2253 37%
c i 28.35 1474 21 2 131 1327  940 32% 17 203225 2252 37%
c i 28.36 1474 21 2 131 1334  946 32% 17 203225 2251 37%
c i 28.37 1474 22 2 131 1378  979 31% 18 203225 2250 37%
c i 28.39 1474 22 2 131 1419 1002 31% 18 203225 2249 37%
c i 28.45 1474 22 2 131 1587 1097 31% 18 203225 2248 36%
c i 28.54 1474 22 2 131 1791 1227 31% 19 203225 2247 36%
c i 28.60 1474 22 2 131 1972 1329 31% 18 203225 2246 36%
c - 28.94 1473 21 3 132 2305 1163 31% 18 203196 2246 36%
c ] 29.40 1473 20 3 132 3002 1521 50% 18 203196 2246 36%
c { 29.40 1473 288 3 132 3002 1521 88% 22 203196 2246 36%
c F 29.43 1473 287 3 133 3005 1524 88% 22 203196 2246 36%
c i 30.11 1473 255 3 150 3164 1671 82% 22 203196 2245 36%
c i 32.04 1473 207 3 210 3577 2017 72% 25 203196 2244 36%
c i 32.11 1473 198 3 210 3653 2082 71% 25 203196 2243 36%
c 
c  seconds     reductions  redundant   irredundant
c          MB      restarts       trail       variables
c             level   conflicts       glue         remaining
c 
c i 32.12 1473 193 3 210 3703 2117 71% 25 203196 2242 36%
c - 32.35 1392 177 4 210 3875 1625 69% 25 203184 2242 36%
c i 33.90 1392 159 4 289 4244 1942 65% 27 203184 2241 36%
c 2 36.27 1392 133 4 383 5000 3485 60% 28 203159 2236 36%
c p 40.14 1392 133 4 383 5000 6120 60% 28 203159 2207 36%
c d 40.41 1392 133 4 383 5000 6112 60% 28 203070 2205 36%
c - 41.42 1392 109 5 383 5839 2380 57% 26 203070 2205 36%
c # 41.58 1392 106 5 384 6007 2513 57% 26 203070 2205 36%
c } 42.53 1392 90 5 403 7003 3247 55% 25 203070 2205 36%
c [ 42.53 1392 20 5 403 7003 3247 50% 18 203070 2205 36%
c - 43.72 1392 22 6 404 8192 2856 50% 19 203070 2205 36%
c I 46.08 1392 22 6 405 10008 3879 50% 19 203070 2205 36%
c - 47.04 1392 29 7 406 10938 3233 49% 24 203070 2205 36%
c - 48.09 1392 40 8 408 14077 3751 49% 33 203070 2205 36%
c p 49.43 1392 42 8 408 15000 8254 50% 34 203070 2205 36%
c ] 49.52 1392 42 8 408 15003 8257 50% 34 203070 2205 36%
c { 49.52 1392 90 8 408 15003 8257 55% 25 203070 2205 36%
c B 49.56 1392 90 8 408 15009 8263 55% 25 203070 2205 36%
c } 51.19 1392 77 8 482 16520 9370 54% 25 203070 2205 36%
c 1 51.19 1392 77 8 482 16520 9370 54% 25 203070 2205 36%
c 
c --- [ writing output ] -----------------------------------------------------
c 
c writing simplified CNF to DIMACS file 'simp/33.cubes5048.adj.simp1'
c 
c  seconds    reductions   redundant   irredundant
c          MB     restarts        trail       variables
c            level    conflicts       glue         remaining
c 
c * 51.19 1392 77 8 482 16520 9370 54% 25 203070 2205 36%
c opening file to write 'simp/33.cubes5048.adj.simp1'
c writing 'p cnf 6160 203070' header
c closing file 'simp/33.cubes5048.adj.simp1'
c after writing 91892379 bytes 87.6 MB
c wrote 203070 clauses in 0.56 seconds process time
c 
c --- [ writing extension ] --------------------------------------------------
c 
c writing extension stack to 'simp/33.cubes5048.adj.ext1'
c opening file to write 'simp/33.cubes5048.adj.ext1'
c closing file 'simp/33.cubes5048.adj.ext1'
c after writing 12193 bytes 0.0 MB
c wrote 818 witnesses in 0.00 seconds process time
c 
c --- [ result ] -------------------------------------------------------------
c 
s SATISFIABLE
c 
c --- [ run-time profiling ] -------------------------------------------------
c 
c process time taken by individual solving procedures
c (percentage relative to process time for solving)
c 
c        28.57   83.96% search
c        19.19   56.39% unstable
c        17.16   50.44% parse
c         7.77   22.83% stable
c         5.46   16.04% simplify
c         4.84   14.21% probe
c         1.61    4.73% lucky
c         0.05    0.15% ternary
c   =================================
c        34.03   65.74% solve
c 
c last line shows process time for solving
c (percentage relative to total process time)
c 
c --- [ statistics ] ---------------------------------------------------------
c 
c chronological:              3545        21.46 %  of conflicts
c conflicts:                 16520       485.47    per second
c decisions:                 59002      1733.89    per second
c fixed:                       804        13.05 %  of all variables
c learned:                   16128        97.63 %  per conflict
c learned_lits:            3016646       100.00 %  learned literals
c minimized:                     0         0.00 %  learned literals
c shrunken:                1800909        59.70 %  learned literals
c minishrunken:             214742         7.12 %  learned literals
c propagations:            2614887         0.08 M  per second
c reduced:                    6073        36.76 %  per conflict
c rephased:                      5      3304.00    interval
c restarts:                    482        34.27    interval
c stabilizing:                   2        60.54 %  of conflicts
c substituted:                   7         0.11 %  of all variables
c subsumed:                   4491         0.14 %  of all clauses
c ternary:                    1936         0.57 %  of resolved
c weakened:                     14         2.00    average size
c 
c seconds are measured in process time for solving
c 
c --- [ resources ] ----------------------------------------------------------
c 
c total process time since initialization:        51.76    seconds
c total real time since initialization:           53.40    seconds
c maximum resident set size of process:         1555.58    MB
c 
c --- [ shutting down ] ------------------------------------------------------
c 
c exit 10
WARNING! DIMACS header mismatch: wrong number of variables.
============================[ Problem Statistics ]=============================
|                                                                             |
|  Number of variables:          6120                                         |
|  Number of clauses:          203070                                         |
|  Parse time:                   1.38 s                                       |
|  Simplification time:          0.03 s                                       |
|                                                                             |
============================[ Search Statistics ]====================================================
| Conflicts |          ORIGINAL         |          LEARNT          | Num Sols |      SUBGRAPHS      |
|           |    Vars  Clauses Literals |    Limit  Clauses Lit/Cl |          | Canonical Noncanon. |
=====================================================================================================
|       101 |    6028   203071 19852714 |     2000      101    122 |        0 |        23         1 |
|       251 |    6028   203071 19852714 |     2000      251    114 |        0 |        28         1 |
|       481 |    6028   203076 19852789 |     2000      481     97 |        0 |        43         6 |
|       838 |    6028   203096 19853209 |     2000      838    107 |        0 |        54        26 |
|      1372 |    6028   203124 19853768 |     2000     1372    105 |        0 |        81        54 |
|      2278 |    6028   203271 19856706 |     3600     1278     59 |        0 |       144       201 |
|      3484 |    6028   203338 19858400 |     3600     2484     87 |        0 |       180       268 |
|      9417 |    6028   207563 19937903 |     6308     4125     39 |        0 |      1084      4493 |
|     13873 |    6028   209457 19973178 |     7556     5429     20 |        0 |      1418      6387 |
|     17804 |    6028   209544 19974721 |     8783     5587     42 |        0 |      1441      6474 |
|     30697 |    6028   216671 20119557 |    11204     9101     19 |        0 |      2889     13601 |
|     39697 |    6028   217022 20128099 |    13614     6311     18 |        0 |      3089     13952 |
|     59077 |    6028   223428 20263659 |    16010    11487     30 |        0 |      4345     20358 |
|     81476 |    6028   226366 20327126 |    18410    17286     65 |        0 |      5060     23296 |
|    140883 |    6028   256581 20865965 |    25616    12499     18 |        0 |      8746     53511 |
|    255149 |    6028   327058 22191825 |    34009    24558     52 |        0 |     19925    123988 |
|    321435 |    6028   327660 22203956 |    38810    19245     20 |        0 |     20072    124590 |
|    463518 |    6028   371217 22972297 |    46010    35928     60 |        0 |     27173    168147 |
|    665407 |    6028   425317 23821268 |    55617    37024     38 |        0 |     33523    222247 |
|   1334972 |    6028   873199 30662853 |    78418    75790     46 |        0 |     75166    670129 |
|   2479383 |    6028  1685085 42532532 |   108410    60193     14 |        0 |    139913   1482015 |
=====================================================================================================
Number of solutions   : 0
Canonical subgraphs   : 166557         (16 /sec)
          order  3    : 1              (250000 /sec)
          order  4    : 1              (500000 /sec)
          order  5    : 1              (250000 /sec)
          order  6    : 1              (50000 /sec)
          order  7    : 1              (7092 /sec)
          order  8    : 2              (1253 /sec)
          order  9    : 7              (324 /sec)
          order 10    : 32             (106 /sec)
          order 11    : 152            (35 /sec)
          order 12    : 1204           (19 /sec)
          order 13    : 8297           (16 /sec)
          order 14    : 91093          (17 /sec)
          order 15    : 28543          (20 /sec)
          order 16    : 20518          (15 /sec)
          order 17    : 10557          (10 /sec)
          order 18    : 4988           (7 /sec)
          order 19    : 1012           (9 /sec)
          order 20    : 87             (13 /sec)
          order 21    : 60             (14 /sec)
          order 22    : 0              (-nan /sec)
Noncanonical subgraphs: 1920505        (127 /sec)
          order  3    : 0              (-nan /sec)
          order  4    : 0              (-nan /sec)
          order  5    : 0              (-nan /sec)
          order  6    : 0              (-nan /sec)
          order  7    : 0              (-nan /sec)
          order  8    : 0              (-nan /sec)
          order  9    : 0              (-nan /sec)
          order 10    : 0              (-nan /sec)
          order 11    : 0              (-nan /sec)
          order 12    : 0              (-nan /sec)
          order 13    : 30784          (3086 /sec)
          order 14    : 172045         (873 /sec)
          order 15    : 1662687        (115 /sec)
          order 16    : 35960          (182 /sec)
          order 17    : 11956          (120 /sec)
          order 18    : 7013           (46 /sec)
          order 19    : 0              (-nan /sec)
          order 20    : 0              (-nan /sec)
          order 21    : 0              (-nan /sec)
Canonicity checking   : 10629.4 s
Noncanonicity checking: 15065.5 s
Total canonicity time : 25694.9 s
database reductions   : 100
restarts              : 5629
conflicts             : 3186079        (119 /sec)
decisions             : 5581958        (0.00 % random) (209 /sec)
propagations          : 315459075      (11808 /sec)
conflict literals     : 174600854      (56.07 % deleted)
actual reward         : 0.078870
Memory used           : 685.00 MB
CPU time              : 26716.4 s

UNSATISFIABLE
